c Mesh Graph
c 10 Rows, 10 columns, capacities in range [0, 100]
p max 102 290
n 1 s
n 102 t
a 1 11 300
a 1 10 300
a 1 9 300
a 1 8 300
a 1 7 300
a 1 6 300
a 1 5 300
a 1 4 300
a 1 3 300
a 1 2 300
a 2 13 78
a 2 12 87
a 2 21 84
a 3 14 36
a 3 13 94
a 3 12 16
a 4 15 50
a 4 14 93
a 4 13 87
a 5 16 28
a 5 15 63
a 5 14 22
a 6 17 64
a 6 16 60
a 6 15 91
a 7 18 27
a 7 17 41
a 7 16 27
a 8 19 12
a 8 18 37
a 8 17 73
a 9 20 30
a 9 19 68
a 9 18 69
a 10 21 63
a 10 20 31
a 10 19 83
a 11 12 36
a 11 21 68
a 11 20 24
a 12 23 23
a 12 22 3
a 12 31 30
a 13 24 68
a 13 23 70
a 13 22 59
a 14 25 12
a 14 24 57
a 14 23 94
a 15 26 74
a 15 25 30
a 15 24 43
a 16 27 85
a 16 26 20
a 16 25 22
a 17 28 25
a 17 27 99
a 17 26 38
a 18 29 14
a 18 28 71
a 18 27 16
a 19 30 81
a 19 29 92
a 19 28 27
a 20 31 63
a 20 30 74
a 20 29 57
a 21 22 82
a 21 31 97
a 21 30 71
a 22 33 85
a 22 32 26
a 22 41 6
a 23 34 6
a 23 33 37
a 23 32 28
a 24 35 14
a 24 34 30
a 24 33 47
a 25 36 96
a 25 35 25
a 25 34 58
a 26 37 15
a 26 36 46
a 26 35 83
a 27 38 65
a 27 37 35
a 27 36 68
a 28 39 88
a 28 38 51
a 28 37 44
a 29 40 79
a 29 39 77
a 29 38 9
a 30 41 4
a 30 40 85
a 30 39 89
a 31 32 100
a 31 41 55
a 31 40 52
a 32 43 77
a 32 42 61
a 32 51 33
a 33 44 13
a 33 43 40
a 33 42 69
a 34 45 95
a 34 44 87
a 34 43 27
a 35 46 71
a 35 45 96
a 35 44 40
a 36 47 68
a 36 46 79
a 36 45 35
a 37 48 3
a 37 47 98
a 37 46 2
a 38 49 53
a 38 48 93
a 38 47 18
a 39 50 81
a 39 49 2
a 39 48 57
a 40 51 66
a 40 50 42
a 40 49 87
a 41 42 20
a 41 51 45
a 41 50 90
a 42 53 32
a 42 52 30
a 42 61 41
a 43 54 72
a 43 53 98
a 43 52 18
a 44 55 10
a 44 54 76
a 44 53 82
a 45 56 57
a 45 55 68
a 45 54 28
a 46 57 87
a 46 56 54
a 46 55 98
a 47 58 84
a 47 57 7
a 47 56 66
a 48 59 29
a 48 58 25
a 48 57 20
a 49 60 30
a 49 59 33
a 49 58 72
a 50 61 71
a 50 60 20
a 50 59 4
a 51 52 16
a 51 61 9
a 51 60 69
a 52 63 97
a 52 62 50
a 52 71 41
a 53 64 46
a 53 63 19
a 53 62 24
a 54 65 22
a 54 64 52
a 54 63 47
a 55 66 89
a 55 65 80
a 55 64 56
a 56 67 42
a 56 66 29
a 56 65 65
a 57 68 1
a 57 67 94
a 57 66 51
a 58 69 25
a 58 68 65
a 58 67 35
a 59 70 57
a 59 69 88
a 59 68 15
a 60 71 28
a 60 70 92
a 60 69 44
a 61 62 37
a 61 71 60
a 61 70 66
a 62 73 38
a 62 72 52
a 62 81 33
a 63 74 8
a 63 73 76
a 63 72 29
a 64 75 59
a 64 74 22
a 64 73 75
a 65 76 38
a 65 75 30
a 65 74 96
a 66 77 19
a 66 76 94
a 66 75 36
a 67 78 12
a 67 77 44
a 67 76 29
a 68 79 77
a 68 78 30
a 68 77 29
a 69 80 64
a 69 79 44
a 69 78 5
a 70 81 7
a 70 80 39
a 70 79 14
a 71 72 19
a 71 81 5
a 71 80 41
a 72 83 70
a 72 82 89
a 72 91 29
a 73 84 97
a 73 83 18
a 73 82 18
a 74 85 71
a 74 84 44
a 74 83 25
a 75 86 100
a 75 85 91
a 75 84 84
a 76 87 45
a 76 86 26
a 76 85 73
a 77 88 40
a 77 87 6
a 77 86 91
a 78 89 70
a 78 88 87
a 78 87 55
a 79 90 65
a 79 89 43
a 79 88 83
a 80 91 56
a 80 90 8
a 80 89 98
a 81 82 12
a 81 91 49
a 81 90 5
a 82 93 100
a 82 92 29
a 82 101 23
a 83 94 69
a 83 93 47
a 83 92 44
a 84 95 12
a 84 94 23
a 84 93 41
a 85 96 2
a 85 95 6
a 85 94 11
a 86 97 79
a 86 96 31
a 86 95 62
a 87 98 37
a 87 97 21
a 87 96 6
a 88 99 23
a 88 98 27
a 88 97 45
a 89 100 17
a 89 99 9
a 89 98 66
a 90 101 25
a 90 100 59
a 90 99 83
a 91 92 25
a 91 101 63
a 91 100 38
a 92 102 300
a 93 102 300
a 94 102 300
a 95 102 300
a 96 102 300
a 97 102 300
a 98 102 300
a 99 102 300
a 100 102 300
a 101 102 300
